; DUP1 SLOAD PUSH cw_3 SWAP1 DUP2 DUP3 => PUSH cw_3 DUP2 SLOAD PUSH cw_3 PUSH cw_3
(set-option :produce-proofs true)
; 
(set-info :status unknown)
(declare-fun storage_t ((_ BitVec 256) (_ BitVec 256) (_ BitVec 256) Int (_ BitVec 256)) (_ BitVec 256))
(declare-fun w_3 () (_ BitVec 256))
(declare-fun storage_s ((_ BitVec 256) (_ BitVec 256) (_ BitVec 256) Int (_ BitVec 256)) (_ BitVec 256))
(declare-fun exc_halt_t (Int) Bool)
(declare-fun exc_halt_s (Int) Bool)
(declare-fun sc_t (Int) (_ BitVec 6))
(declare-fun stack_t ((_ BitVec 256) (_ BitVec 256) (_ BitVec 256) Int (_ BitVec 6)) (_ BitVec 256))
(declare-fun stack_s ((_ BitVec 256) (_ BitVec 256) (_ BitVec 256) Int (_ BitVec 6)) (_ BitVec 256))
(declare-fun sc_s (Int) (_ BitVec 6))
(declare-fun used_gas_t ((_ BitVec 256) (_ BitVec 256) (_ BitVec 256) Int) Int)
(declare-fun used_gas_s ((_ BitVec 256) (_ BitVec 256) (_ BitVec 256) Int) Int)
(assert
 (exists ((x_0 (_ BitVec 256)) (x_SLOAD_0 (_ BitVec 256)) )(let (($x8234 (forall ((w (_ BitVec 256)) )(let ((?x1037 (storage_t x_0 x_SLOAD_0 w_3 5 w)))
 (let ((?x8237 (storage_s x_0 x_SLOAD_0 w_3 6 w)))
 (= ?x8237 ?x1037))))
 ))
 (let (($x886 (exc_halt_t 5)))
 (let (($x772 (exc_halt_s 6)))
 (let (($x889 (= $x772 $x886)))
 (let (($x3603 (forall ((n (_ BitVec 6)) )(let ((?x8278 (stack_t x_0 x_SLOAD_0 w_3 5 n)))
 (let ((?x8051 (stack_s x_0 x_SLOAD_0 w_3 6 n)))
 (let (($x8050 (= ?x8051 ?x8278)))
 (or $x8050 (bvsle (sc_t 5) n))))))
 ))
 (let ((?x919 (sc_t 5)))
 (let ((?x926 (sc_s 6)))
 (let (($x929 (= ?x926 ?x919)))
 (let ((?x9304 (used_gas_t x_0 x_SLOAD_0 w_3 0)))
 (let ((?x9290 (used_gas_s x_0 x_SLOAD_0 w_3 0)))
 (let (($x9292 (= ?x9290 ?x9304)))
 (let (($x8960 (forall ((w (_ BitVec 256)) )(let ((?x9272 (storage_t x_0 x_SLOAD_0 w_3 0 w)))
 (let ((?x8918 (storage_s x_0 x_SLOAD_0 w_3 0 w)))
 (= ?x8918 ?x9272))))
 ))
 (let (($x56 (exc_halt_t 0)))
 (let (($x57 (exc_halt_s 0)))
 (let (($x58 (= $x57 $x56)))
 (let (($x3104 (forall ((n (_ BitVec 6)) )(let ((?x2502 (stack_t x_0 x_SLOAD_0 w_3 0 n)))
 (let ((?x7693 (stack_s x_0 x_SLOAD_0 w_3 0 n)))
 (let (($x8952 (= ?x7693 ?x2502)))
 (let ((?x63 (sc_t 0)))
 (let (($x7609 (bvsle ?x63 n)))
 (or $x7609 $x8952)))))))
 ))
 (let ((?x63 (sc_t 0)))
 (let ((?x72 (sc_s 0)))
 (let (($x73 (= ?x72 ?x63)))
 (let (($x566 (exc_halt_t 4)))
 (let (($x8694 (or $x566 (not (= ((_ extract 6 6) (bvadd (_ bv1 7) (concat (_ bv0 1) (sc_t 4)))) (_ bv0 1))))))
 (let (($x7619 (forall ((w (_ BitVec 256)) )(let ((?x9293 (storage_t x_0 x_SLOAD_0 w_3 4 w)))
 (let ((?x1037 (storage_t x_0 x_SLOAD_0 w_3 5 w)))
 (= ?x1037 ?x9293))))
 ))
 (let (($x7796 (forall ((n (_ BitVec 6)) )(let ((?x518 (sc_t 4)))
 (let (($x9265 (bvsle ?x518 n)))
 (let ((?x8957 (stack_t x_0 x_SLOAD_0 w_3 4 n)))
 (let ((?x8278 (stack_t x_0 x_SLOAD_0 w_3 5 n)))
 (or (= ?x8278 ?x8957) $x9265))))))
 ))
 (let (($x8714 (= (used_gas_t x_0 x_SLOAD_0 w_3 5) (+ 3 (used_gas_t x_0 x_SLOAD_0 w_3 4)))))
 (let (($x10336 (exc_halt_t 3)))
 (let (($x2962 (or $x10336 (not (= ((_ extract 6 6) (bvadd (_ bv1 7) (concat (_ bv0 1) (sc_t 3)))) (_ bv0 1))))))
 (let (($x8860 (forall ((w (_ BitVec 256)) )(let ((?x7190 (storage_t x_0 x_SLOAD_0 w_3 3 w)))
 (let ((?x9293 (storage_t x_0 x_SLOAD_0 w_3 4 w)))
 (= ?x9293 ?x7190))))
 ))
 (let (($x7332 (forall ((n (_ BitVec 6)) )(let ((?x8971 (stack_t x_0 x_SLOAD_0 w_3 3 n)))
 (let ((?x8957 (stack_t x_0 x_SLOAD_0 w_3 4 n)))
 (let (($x8820 (= ?x8957 ?x8971)))
 (or (bvsle (sc_t 3) n) $x8820)))))
 ))
 (let ((?x2162 (used_gas_t x_0 x_SLOAD_0 w_3 4)))
 (let (($x7825 (= $x10336 (or (exc_halt_t 2) (not (bvsle (_ bv0 6) (bvadd (_ bv63 6) (sc_t 2))))))))
 (let (($x7882 (forall ((w (_ BitVec 256)) )(let ((?x965 (storage_t x_0 x_SLOAD_0 w_3 2 w)))
 (let ((?x7190 (storage_t x_0 x_SLOAD_0 w_3 3 w)))
 (= ?x7190 ?x965))))
 ))
 (let (($x5801 (forall ((n (_ BitVec 6)) )(let ((?x8993 (stack_t x_0 x_SLOAD_0 w_3 2 n)))
 (let ((?x8971 (stack_t x_0 x_SLOAD_0 w_3 3 n)))
 (let (($x8783 (= ?x8971 ?x8993)))
 (or (bvsle (bvadd (_ bv63 6) (sc_t 2)) n) $x8783)))))
 ))
 (let ((?x4056 (sc_t 2)))
 (let ((?x2012 (sc_t 3)))
 (let (($x9554 (= ?x2012 ?x4056)))
 (let ((?x8988 (used_gas_t x_0 x_SLOAD_0 w_3 3)))
 (let ((?x9462 (bvadd (_ bv63 6) ?x4056)))
 (let ((?x8827 (stack_t x_0 x_SLOAD_0 w_3 2 ?x9462)))
 (let ((?x9681 (bvadd (_ bv63 6) ?x2012)))
 (let ((?x2961 (stack_t x_0 x_SLOAD_0 w_3 3 ?x9681)))
 (let (($x3509 (not (= ((_ extract 6 6) (bvadd (_ bv1 7) (concat (_ bv0 1) (sc_t 1)))) (_ bv0 1)))))
 (let (($x1920 (exc_halt_t 1)))
 (let (($x903 (exc_halt_t 2)))
 (let (($x7955 (forall ((w (_ BitVec 256)) )(let ((?x9016 (storage_t x_0 x_SLOAD_0 w_3 1 w)))
 (let ((?x965 (storage_t x_0 x_SLOAD_0 w_3 2 w)))
 (= ?x965 ?x9016))))
 ))
 (let (($x8777 (forall ((n (_ BitVec 6)) )(let ((?x9036 (stack_t x_0 x_SLOAD_0 w_3 1 n)))
 (let ((?x8993 (stack_t x_0 x_SLOAD_0 w_3 2 n)))
 (let (($x7953 (= ?x8993 ?x9036)))
 (or $x7953 (bvsle (bvadd (_ bv62 6) (sc_t 1)) n))))))
 ))
 (let (($x7842 (= ?x4056 (bvadd (_ bv1 6) (sc_t 1)))))
 (let ((?x1052 (used_gas_t x_0 x_SLOAD_0 w_3 2)))
 (let (($x8850 (= ?x1052 (+ 3 (used_gas_t x_0 x_SLOAD_0 w_3 1)))))
 (let (($x8771 (= (stack_t x_0 x_SLOAD_0 w_3 2 (bvadd (_ bv63 6) (sc_t 1))) (stack_t x_0 x_SLOAD_0 w_3 1 (bvadd (_ bv63 6) (sc_t 1))))))
 (let ((?x4023 (sc_t 1)))
 (let ((?x4901 (bvadd (_ bv62 6) ?x4023)))
 (let ((?x8770 (stack_t x_0 x_SLOAD_0 w_3 1 ?x4901)))
 (let (($x8349 (= $x1920 (or $x56 (not (= ((_ extract 6 6) (bvadd (_ bv1 7) (concat (_ bv0 1) ?x63))) (_ bv0 1)))))))
 (let (($x7760 (forall ((w (_ BitVec 256)) )(let ((?x9272 (storage_t x_0 x_SLOAD_0 w_3 0 w)))
 (let ((?x9016 (storage_t x_0 x_SLOAD_0 w_3 1 w)))
 (= ?x9016 ?x9272))))
 ))
 (let (($x7847 (forall ((n (_ BitVec 6)) )(let ((?x63 (sc_t 0)))
 (let (($x7609 (bvsle ?x63 n)))
 (let ((?x2502 (stack_t x_0 x_SLOAD_0 w_3 0 n)))
 (let ((?x9036 (stack_t x_0 x_SLOAD_0 w_3 1 n)))
 (or (= ?x9036 ?x2502) $x7609))))))
 ))
 (let (($x7851 (= ?x4023 (bvadd (_ bv1 6) ?x63))))
 (let ((?x9079 (used_gas_t x_0 x_SLOAD_0 w_3 1)))
 (let (($x2987 (= ?x9079 (+ 3 ?x9304))))
 (let (($x8127 (= (stack_t x_0 x_SLOAD_0 w_3 1 ?x63) w_3)))
 (let (($x3979 (exc_halt_s 5)))
 (let (($x7786 (or $x3979 (not (bvsle (_ bv0 6) (bvadd (_ bv61 6) (sc_s 5)))) (not (= ((_ extract 6 6) (bvadd (_ bv1 7) (concat (_ bv0 1) (sc_s 5)))) (_ bv0 1))))))
 (let (($x7765 (forall ((w (_ BitVec 256)) )(let ((?x3297 (storage_s x_0 x_SLOAD_0 w_3 5 w)))
 (let ((?x8237 (storage_s x_0 x_SLOAD_0 w_3 6 w)))
 (= ?x8237 ?x3297))))
 ))
 (let (($x7775 (forall ((n (_ BitVec 6)) )(let ((?x9323 (stack_s x_0 x_SLOAD_0 w_3 5 n)))
 (let ((?x8051 (stack_s x_0 x_SLOAD_0 w_3 6 n)))
 (or (= ?x8051 ?x9323) (bvsle (bvadd (_ bv61 6) (sc_s 5)) n)))))
 ))
 (let (($x7769 (= (used_gas_s x_0 x_SLOAD_0 w_3 6) (+ 3 (used_gas_s x_0 x_SLOAD_0 w_3 5)))))
 (let ((?x805 (sc_s 5)))
 (let ((?x9564 (bvadd (_ bv63 6) ?x805)))
 (let ((?x1078 (stack_s x_0 x_SLOAD_0 w_3 5 ?x9564)))
 (let ((?x7870 (bvadd (_ bv62 6) ?x805)))
 (let ((?x8928 (stack_s x_0 x_SLOAD_0 w_3 5 ?x7870)))
 (let ((?x2982 (bvadd (_ bv61 6) ?x805)))
 (let ((?x2184 (stack_s x_0 x_SLOAD_0 w_3 5 ?x2982)))
 (let (($x3503 (not (bvsle (_ bv0 6) (bvadd (_ bv62 6) (sc_s 4))))))
 (let (($x64 (exc_halt_s 4)))
 (let (($x8450 (or $x64 $x3503 (not (= ((_ extract 6 6) (bvadd (_ bv1 7) (concat (_ bv0 1) (sc_s 4)))) (_ bv0 1))))))
 (let (($x8685 (forall ((w (_ BitVec 256)) )(let ((?x3810 (storage_s x_0 x_SLOAD_0 w_3 4 w)))
 (let ((?x3297 (storage_s x_0 x_SLOAD_0 w_3 5 w)))
 (= ?x3297 ?x3810))))
 ))
 (let (($x8746 (forall ((n (_ BitVec 6)) )(let ((?x4305 (sc_s 4)))
 (let ((?x8894 (bvadd (_ bv62 6) ?x4305)))
 (let (($x9518 (bvsle ?x8894 n)))
 (let ((?x9135 (stack_s x_0 x_SLOAD_0 w_3 4 n)))
 (let ((?x9323 (stack_s x_0 x_SLOAD_0 w_3 5 n)))
 (let (($x8725 (= ?x9323 ?x9135)))
 (or $x8725 $x9518))))))))
 ))
 (let ((?x2988 (used_gas_s x_0 x_SLOAD_0 w_3 5)))
 (let (($x8851 (= ?x2988 (+ 3 (used_gas_s x_0 x_SLOAD_0 w_3 4)))))
 (let ((?x4305 (sc_s 4)))
 (let ((?x9580 (bvadd (_ bv63 6) ?x4305)))
 (let ((?x8917 (stack_s x_0 x_SLOAD_0 w_3 4 ?x9580)))
 (let ((?x8894 (bvadd (_ bv62 6) ?x4305)))
 (let ((?x7857 (stack_s x_0 x_SLOAD_0 w_3 4 ?x8894)))
 (let (($x8515 (= $x64 (or (exc_halt_s 3) (not (bvsle (_ bv0 6) (bvadd (_ bv62 6) (sc_s 3))))))))
 (let (($x8925 (forall ((w (_ BitVec 256)) )(let ((?x9162 (storage_s x_0 x_SLOAD_0 w_3 3 w)))
 (let ((?x3810 (storage_s x_0 x_SLOAD_0 w_3 4 w)))
 (= ?x3810 ?x9162))))
 ))
 (let (($x1067 (forall ((n (_ BitVec 6)) )(let ((?x3024 (stack_s x_0 x_SLOAD_0 w_3 3 n)))
 (let ((?x9135 (stack_s x_0 x_SLOAD_0 w_3 4 n)))
 (let (($x2099 (= ?x9135 ?x3024)))
 (or $x2099 (bvsle (bvadd (_ bv62 6) (sc_s 3)) n))))))
 ))
 (let ((?x275 (sc_s 3)))
 (let (($x3560 (= ?x4305 ?x275)))
 (let ((?x8793 (used_gas_s x_0 x_SLOAD_0 w_3 4)))
 (let (($x2156 (= ?x8793 (+ 3 (used_gas_s x_0 x_SLOAD_0 w_3 3)))))
 (let (($x247 (exc_halt_s 2)))
 (let (($x494 (or $x247 (not (= ((_ extract 6 6) (bvadd (_ bv1 7) (concat (_ bv0 1) (sc_s 2)))) (_ bv0 1))))))
 (let (($x292 (exc_halt_s 3)))
 (let (($x2133 (= $x292 $x494)))
 (let (($x7387 (forall ((w (_ BitVec 256)) )(let ((?x8559 (storage_s x_0 x_SLOAD_0 w_3 2 w)))
 (let ((?x9162 (storage_s x_0 x_SLOAD_0 w_3 3 w)))
 (= ?x9162 ?x8559))))
 ))
 (let (($x2148 (forall ((n (_ BitVec 6)) )(let ((?x8557 (stack_s x_0 x_SLOAD_0 w_3 2 n)))
 (let ((?x3024 (stack_s x_0 x_SLOAD_0 w_3 3 n)))
 (or (= ?x3024 ?x8557) (bvsle (sc_s 2) n)))))
 ))
 (let (($x8896 (= ?x275 (bvadd (_ bv1 6) (sc_s 2)))))
 (let ((?x3618 (used_gas_s x_0 x_SLOAD_0 w_3 3)))
 (let (($x6467 (= ?x3618 (+ 3 (used_gas_s x_0 x_SLOAD_0 w_3 2)))))
 (let (($x3927 (= (stack_s x_0 x_SLOAD_0 w_3 3 (sc_s 2)) w_3)))
 (let (($x3038 (= $x247 (or (exc_halt_s 1) (not (bvsle (_ bv0 6) (bvadd (_ bv63 6) (sc_s 1))))))))
 (let (($x3071 (forall ((w (_ BitVec 256)) )(let ((?x9231 (storage_s x_0 x_SLOAD_0 w_3 1 w)))
 (let ((?x8559 (storage_s x_0 x_SLOAD_0 w_3 2 w)))
 (= ?x8559 ?x9231))))
 ))
 (let (($x9063 (forall ((n (_ BitVec 6)) )(let ((?x7774 (stack_s x_0 x_SLOAD_0 w_3 1 n)))
 (let ((?x8557 (stack_s x_0 x_SLOAD_0 w_3 2 n)))
 (or (= ?x8557 ?x7774) (bvsle (bvadd (_ bv63 6) (sc_s 1)) n)))))
 ))
 (let ((?x154 (sc_s 1)))
 (let ((?x218 (sc_s 2)))
 (let (($x9614 (= ?x218 ?x154)))
 (let ((?x2153 (used_gas_s x_0 x_SLOAD_0 w_3 2)))
 (let (($x2936 (= ?x2153 (+ 200 (used_gas_s x_0 x_SLOAD_0 w_3 1)))))
 (let ((?x9649 (bvadd (_ bv63 6) ?x154)))
 (let ((?x8796 (stack_s x_0 x_SLOAD_0 w_3 1 ?x9649)))
 (let (($x8887 (= (stack_s x_0 x_SLOAD_0 w_3 2 (bvadd (_ bv63 6) ?x218)) (storage_s x_0 x_SLOAD_0 w_3 1 ?x8796))))
 (let (($x2283 (or $x57 (not (= ((_ extract 6 6) (bvadd (_ bv1 7) (concat (_ bv0 1) ?x72))) (_ bv0 1))) (not (bvsle (_ bv0 6) (bvadd (_ bv63 6) ?x72))))))
 (let (($x189 (exc_halt_s 1)))
 (let (($x8906 (= $x189 $x2283)))
 (let (($x3553 (forall ((w (_ BitVec 256)) )(let ((?x8918 (storage_s x_0 x_SLOAD_0 w_3 0 w)))
 (let ((?x9231 (storage_s x_0 x_SLOAD_0 w_3 1 w)))
 (= ?x9231 ?x8918))))
 ))
 (let (($x2384 (forall ((n (_ BitVec 6)) )(let ((?x7693 (stack_s x_0 x_SLOAD_0 w_3 0 n)))
 (let ((?x7774 (stack_s x_0 x_SLOAD_0 w_3 1 n)))
 (or (= ?x7774 ?x7693) (bvsle (bvadd (_ bv63 6) (sc_s 0)) n)))))
 ))
 (let (($x9025 (= ?x154 (bvadd (_ bv1 6) ?x72))))
 (let ((?x9257 (used_gas_s x_0 x_SLOAD_0 w_3 1)))
 (let (($x8751 (= ?x9257 (+ 3 ?x9290))))
 (let ((?x9642 (bvadd (_ bv63 6) ?x72)))
 (let ((?x9045 (stack_s x_0 x_SLOAD_0 w_3 0 ?x9642)))
 (let (($x8797 (= (stack_s x_0 x_SLOAD_0 w_3 1 ?x9642) ?x9045)))
 (let (($x550 (= ?x8796 ?x9045)))
 (let (($x670 (forall ((w (_ BitVec 256)) )(let ((?x8679 (ite (= w (stack_s x_0 x_SLOAD_0 w_3 1 (bvadd (_ bv63 6) (sc_s 1)))) x_SLOAD_0 (_ bv0 256))))
 (let ((?x8918 (storage_s x_0 x_SLOAD_0 w_3 0 w)))
 (= ?x8918 ?x8679))))
 ))
 (let (($x9213 (= ?x9290 0)))
 (let (($x5028 (not $x57)))
 (let (($x9180 (= (stack_s x_0 x_SLOAD_0 w_3 0 (_ bv0 6)) x_0)))
 (let (($x2911 (= ?x72 (_ bv1 6))))
 (and $x2911 $x9180 $x5028 $x9213 $x670 $x550 $x8797 $x8751 $x9025 $x2384 $x3553 $x8906 $x8887 $x2936 $x9614 $x9063 $x3071 $x3038 $x3927 $x6467 $x8896 $x2148 $x7387 $x2133 (= ?x8917 (stack_s x_0 x_SLOAD_0 w_3 3 (bvadd (_ bv62 6) ?x275))) (= ?x7857 (stack_s x_0 x_SLOAD_0 w_3 3 (bvadd (_ bv63 6) ?x275))) $x2156 $x3560 $x1067 $x8925 $x8515 (= ?x1078 ?x7857) (= (stack_s x_0 x_SLOAD_0 w_3 5 ?x8894) ?x7857) (= (stack_s x_0 x_SLOAD_0 w_3 5 ?x9580) ?x8917) $x8851 (= ?x805 (bvadd (_ bv1 6) ?x4305)) $x8746 $x8685 (= $x3979 $x8450) (= (stack_s x_0 x_SLOAD_0 w_3 6 (bvadd (_ bv63 6) ?x926)) ?x2184) (= (stack_s x_0 x_SLOAD_0 w_3 6 ?x2982) ?x2184) (= (stack_s x_0 x_SLOAD_0 w_3 6 ?x7870) ?x8928) (= (stack_s x_0 x_SLOAD_0 w_3 6 ?x9564) ?x1078) $x7769 (= ?x926 (bvadd (_ bv1 6) ?x805)) $x7775 $x7765 (= $x772 $x7786) $x8127 $x2987 $x7851 $x7847 $x7760 $x8349 (= ?x8827 ?x8770) (= (stack_t x_0 x_SLOAD_0 w_3 2 ?x4901) ?x8770) $x8771 $x8850 $x7842 $x8777 $x7955 (= $x903 (or $x1920 $x3509 (not (bvsle (_ bv0 6) ?x4901)))) (= ?x2961 (storage_t x_0 x_SLOAD_0 w_3 2 ?x8827)) (= ?x8988 (+ 200 ?x1052)) $x9554 $x5801 $x7882 $x7825 (= (stack_t x_0 x_SLOAD_0 w_3 4 ?x2012) w_3) (= ?x2162 (+ 3 ?x8988)) (= (sc_t 4) (bvadd (_ bv1 6) ?x2012)) $x7332 $x8860 (= $x566 $x2962) (= (stack_t x_0 x_SLOAD_0 w_3 5 (sc_t 4)) w_3) $x8714 (= ?x919 (bvadd (_ bv1 6) (sc_t 4))) $x7796 $x7619 (= $x886 $x8694) $x73 $x3104 $x58 $x8960 $x9292 (not (and $x929 $x3603 $x889 $x8234))))))))))))))))))))))))))))))))))))))))))))))))))))))))))))))))))))))))))))))))))))))))))))))))))))))))))))))))))))))))))))))))))))
 )
(check-sat)
(get-proof)
